c User generated cnf file
p cnf 9 44
7 7 -4 0 
9 -2 8 0 
5 -4 9 0 
3 9 -1 0 
6 -2 3 0 
1 -7 8 0 
3 4 -7 0 
3 -3 1 0 
-1 5 6 0 
-7 9 8 0 
9 -3 4 0 
6 6 -2 0 
-8 3 3 0 
5 -1 3 0 
-9 2 2 0 
5 -7 1 0 
7 -4 4 0 
-4 6 7 0 
3 5 -3 0 
-3 9 6 0 
8 -2 4 0 
8 -8 5 0 
3 8 -5 0 
2 -6 4 0 
-9 6 3 0 
-6 4 2 0 
-4 3 6 0 
8 -2 9 0 
2 -6 4 0 
-1 1 5 0 
4 -9 7 0 
2 -9 2 0 
4 -1 8 0 
-4 9 8 0 
5 2 -6 0 
5 -9 6 0 
9 8 -6 0 
9 -7 2 0 
-5 2 8 0 
-4 6 9 0 
1 1 -5 0 
8 3 -8 0 
-2 6 3 0 
3 8 -6 0 
